
List of user-set options:

                                    Name   Value                used
                           linear_solver = mumps                 yes
                  ma57_automatic_scaling = yes                    no
                             mu_strategy = adaptive              yes
                      nlp_scaling_method = none                  yes
                             output_file = Gait_RunIPOPTinfo.txt  yes
                      print_user_options = yes                   yes
                                     tol = 1e-006                yes
This is Ipopt version 3.11.0, running with linear solver mumps.

Number of nonzeros in equality constraint Jacobian...:    35356
Number of nonzeros in inequality constraint Jacobian.:      735
Number of nonzeros in Lagrangian Hessian.............:    20206

Total number of variables............................:     2168
                     variables with only lower bounds:        0
                variables with lower and upper bounds:     2168
                     variables with only upper bounds:        0
Total number of equality constraints.................:     1529
Total number of inequality constraints...............:      181
        inequality constraints with only lower bounds:        0
   inequality constraints with lower and upper bounds:      181
        inequality constraints with only upper bounds:        0

iter    objective    inf_pr   inf_du lg(mu)  ||d||  lg(rg) alpha_du alpha_pr  ls
   0 3.3868637e-001 1.07e+000 1.10e-003   0.0 0.00e+000    -  0.00e+000 0.00e+000   0
   1 3.3877663e-001 1.04e+000 3.82e-002  -4.1 2.11e+001    -  3.21e-002 3.32e-002h  1
   2 3.3914095e-001 9.14e-001 1.01e+000  -4.1 1.37e+001    -  2.67e-002 1.17e-001h  1
   3 3.3986943e-001 6.97e-001 1.32e+000  -4.1 6.85e+000    -  8.12e-002 2.37e-001h  1
   4 3.4091690e-001 4.07e-001 6.30e-001  -4.1 1.19e+000    -  2.15e-001 4.16e-001h  1
   5 3.4110667e-001 3.58e-001 3.56e+000  -4.2 6.35e-001    -  4.21e-001 1.21e-001h  1
   6 3.4225617e-001 7.31e-002 1.42e+001  -4.5 4.86e-001    -  2.49e-001 7.96e-001h  1
   7 3.4227510e-001 6.93e-002 2.30e+001  -4.6 5.06e-001    -  7.80e-001 5.24e-002h  1
   8 3.4256611e-001 2.38e-002 7.76e+000  -5.3 1.77e+000    -  5.58e-001 6.56e-001h  1
   9 3.4257826e-001 2.30e-002 3.80e+001  -5.6 9.95e-001    -  6.85e-001 3.11e-002h  1
iter    objective    inf_pr   inf_du lg(mu)  ||d||  lg(rg) alpha_du alpha_pr  ls
  10 3.4299135e-001 1.02e-002 1.56e+001  -6.1 1.81e+000    -  4.08e-001 5.59e-001h  1
  11 3.4301471e-001 9.31e-003 3.61e+000  -6.3 7.53e-001    -  4.78e-001 8.38e-002h  1
  12 3.4322124e-001 6.95e-004 1.07e+001  -6.6 5.94e-001    -  5.14e-001 9.90e-001h  1
  13 3.4302967e-001 1.21e-004 3.39e+000  -6.9 5.35e-001    -  7.27e-001 8.06e-001h  1
  14 3.4302605e-001 1.21e-004 2.52e+000  -7.5 1.69e+000    -  1.81e-001 6.02e-003h  1
  15 3.4284201e-001 9.10e-005 2.90e+000  -7.6 1.99e+000    -  5.56e-003 2.74e-001h  1
  16 3.4258148e-001 1.61e-004 8.31e-001  -7.6 1.99e+000    -  6.34e-001 4.09e-001h  1
  17 3.4213819e-001 1.03e-003 8.04e-001  -8.0 5.17e+000    -  1.78e-001 3.70e-001h  1
  18 3.4211227e-001 1.01e-003 3.62e-001  -8.1 6.05e+000    -  3.59e-001 2.23e-002h  1
  19 3.4192982e-001 1.11e-003 2.70e-001  -8.3 9.05e+000    -  1.82e-001 1.20e-001h  1
iter    objective    inf_pr   inf_du lg(mu)  ||d||  lg(rg) alpha_du alpha_pr  ls
  20 3.4186155e-001 1.08e-003 2.04e-001  -8.4 1.16e+001    -  1.11e-001 4.44e-002h  1
  21 3.4181292e-001 1.05e-003 9.79e-002  -8.4 1.34e+001    -  2.22e-001 3.47e-002h  1
  22 3.4166432e-001 9.39e-004 1.47e-001  -8.5 1.67e+001    -  2.90e-001 1.05e-001h  1
  23 3.4144330e-001 8.93e-004 2.21e-001  -8.7 2.32e+001    -  2.88e-001 1.50e-001h  1
  24 3.4143240e-001 8.65e-004 4.48e-001  -8.8 4.15e-001  -4.0 3.43e-001 3.06e-002h  1
  25 3.4088435e-001 1.73e-003 3.20e-001  -9.0 4.87e+001    -  1.81e-001 2.49e-001h  1
  26 3.4061939e-001 1.90e-003 3.26e-001  -9.1 6.02e+001    -  4.04e-001 1.35e-001h  1
  27 3.4056666e-001 1.70e-003 2.62e-001  -9.3 6.81e-001  -4.5 2.48e-002 1.05e-001h  1
  28 3.4056529e-001 1.70e-003 2.81e-001  -9.3 6.24e+001    -  1.61e-001 7.07e-004h  1
  29 3.4046142e-001 1.64e-003 2.69e-001  -9.4 7.43e+001    -  6.71e-002 5.04e-002h  1
iter    objective    inf_pr   inf_du lg(mu)  ||d||  lg(rg) alpha_du alpha_pr  ls
  30 3.4045957e-001 1.64e-003 3.16e-001  -9.5 6.62e+001    -  2.66e-001 1.03e-003h  1
  31 3.4040786e-001 1.57e-003 1.11e+000  -5.7 2.11e+002    -  6.00e-002 4.41e-002h  1
  32 3.4038156e-001 1.53e-003 1.16e+001  -5.7 8.92e+001    -  2.01e-001 6.84e-002h  1
  33 3.4016244e-001 1.33e-003 9.36e+000  -9.7 7.10e+001    -  2.04e-001 1.42e-001h  1
  34 3.4002914e-001 1.71e-003 1.84e+001  -5.9 1.40e+002    -  3.41e-001 1.35e-001h  1
  35 3.3996629e-001 1.62e-003 9.92e+000 -10.0 5.56e+001    -  4.51e-001 5.20e-002h  1
  36 3.3979173e-001 1.22e-003 3.63e+000  -5.8 8.59e+001    -  2.15e-001 3.73e-001h  1
  37 3.3965758e-001 1.39e-003 1.02e+001  -6.0 8.15e+001    -  6.45e-001 2.57e-001h  1
  38 3.3947003e-001 2.01e-003 8.28e+000  -6.2 1.58e+002    -  6.91e-001 3.40e-001h  1
  39 3.3939379e-001 3.31e-003 1.17e+001  -6.1 2.73e+002    -  6.22e-001 2.56e-001h  1
iter    objective    inf_pr   inf_du lg(mu)  ||d||  lg(rg) alpha_du alpha_pr  ls
  40 3.3948378e-001 8.95e-004 3.37e+000  -5.8 1.04e+000  -5.9 7.11e-001 7.11e-001h  1
  41 3.3938674e-001 9.01e-004 4.75e+000  -6.1 1.49e+002    -  8.78e-001 2.92e-001h  1
  42 3.3907074e-001 4.58e-003 9.06e+000  -6.5 1.68e+002    -  9.82e-001 7.02e-001h  1
  43 3.3897299e-001 1.09e-002 1.04e+001  -6.6 1.27e+003    -  8.93e-001 5.83e-001h  1
  44 3.3885509e-001 2.51e-005 1.28e-005  -6.9 4.45e-001  -6.4 1.00e+000 1.00e+000h  1
  45 3.3882092e-001 5.81e-005 4.10e-002  -7.1 7.60e-001  -6.9 1.00e+000 9.95e-001h  1
  46 3.3880545e-001 5.22e-004 1.45e-002  -7.4 1.93e+000  -7.3 1.00e+000 9.95e-001h  1
  47 3.3878779e-001 1.51e-004 5.21e-006  -8.1 1.02e+000  -6.9 1.00e+000 1.00e+000h  1
  48 3.3880325e-001 4.09e-004 4.96e-006  -7.4 2.45e+000  -7.4 1.00e+000 1.00e+000h  1
  49 3.3879789e-001 1.40e-003 1.82e-001  -7.5 3.09e+000  -7.9 9.85e-001 7.79e-001h  1
iter    objective    inf_pr   inf_du lg(mu)  ||d||  lg(rg) alpha_du alpha_pr  ls
  50 3.3879451e-001 2.98e-003 3.53e-002  -7.5 4.78e+000  -8.3 1.00e+000 8.19e-001f  1
  51 3.3879245e-001 9.40e-004 9.96e-003  -7.5 9.58e+000  -8.8 1.00e+000 7.17e-001f  1
  52 3.3878908e-001 1.84e-004 1.29e-003  -7.5 1.53e+001  -9.3 1.00e+000 8.71e-001f  1
  53 3.3878874e-001 2.10e-005 8.39e-008  -7.5 4.69e+000  -8.9 1.00e+000 1.00e+000f  1
  54 3.3880382e-001 5.30e-003 4.40e-005  -7.2 1.96e+001  -9.8 1.00e+000 1.00e+000h  1
  55 3.3879628e-001 7.44e-004 7.48e-006  -7.3 5.32e+000  -9.4 1.00e+000 1.00e+000h  1
  56 3.3879565e-001 6.55e-005 2.72e-005  -7.3 2.67e+001  -9.9 1.00e+000 1.00e+000h  1
  57 3.3879505e-001 1.97e-004 9.42e-006  -7.3 3.30e+001 -10.4 1.00e+000 1.00e+000h  1
  58 3.3879490e-001 3.87e-004 4.03e-005  -7.3 1.26e+002 -10.8 8.73e-001 2.49e-001h  2
  59 3.3879476e-001 5.04e-004 7.77e-005  -7.3 9.56e+002 -11.3 2.13e-001 9.35e-002h  2
iter    objective    inf_pr   inf_du lg(mu)  ||d||  lg(rg) alpha_du alpha_pr  ls
  60 3.3879416e-001 6.29e-004 5.17e-006  -7.3 6.99e+001 -10.9 1.00e+000 1.00e+000h  1
  61 3.3879408e-001 1.87e-005 1.64e-006  -7.3 3.04e+000  -9.6 1.00e+000 1.00e+000h  1
  62 3.3878228e-001 8.31e-004 3.08e-002  -7.5 1.57e+001 -10.0 9.84e-001 1.00e+000h  1
  63 3.3877240e-001 9.15e-004 7.65e-006  -7.8 5.04e+001 -10.5 1.00e+000 1.00e+000h  1
  64 3.3879889e-001 1.27e-002 3.29e+000  -6.9 2.66e+002 -11.0 9.12e-002 4.26e-001h  1
  65 3.3878405e-001 6.01e-003 1.11e+000  -7.6 1.17e+002 -10.6 1.00e+000 6.79e-001h  1
  66 3.3878120e-001 3.10e-003 4.62e-001  -7.6 7.37e+000  -9.2 2.18e-001 5.83e-001f  1
  67 3.3877787e-001 2.79e-004 1.48e-005  -7.6 7.02e+000  -9.7 9.77e-001 1.00e+000f  1
  68 3.3877271e-001 1.95e-004 1.22e-005  -7.8 2.47e+001 -10.2 1.00e+000 1.00e+000h  1
  69 3.3877971e-001 9.11e-005 3.96e-001  -7.5 6.79e+001 -10.7 6.89e-001 1.00e+000h  1
iter    objective    inf_pr   inf_du lg(mu)  ||d||  lg(rg) alpha_du alpha_pr  ls
  70 3.3877647e-001 6.67e-003 1.54e-002  -7.6 1.32e+002 -11.1 1.00e+000 9.68e-001h  1
  71 3.3877409e-001 2.08e-003 1.97e-001  -7.7 2.49e+002 -11.6 1.00e+000 5.99e-001h  1
  72 3.3877299e-001 5.99e-005 4.62e-005  -7.7 5.11e+001 -10.3 1.00e+000 1.00e+000f  1
  73 3.3876905e-001 1.43e-004 8.06e-004  -7.9 2.64e+001 -10.8 1.00e+000 9.99e-001h  1
  74 3.3876498e-001 5.92e-005 5.41e-004  -8.2 1.76e+001 -10.3 1.00e+000 9.99e-001h  1
  75 3.3876297e-001 2.25e-005 3.03e-002  -8.6 1.85e+001 -10.4 1.00e+000 9.16e-001h  1
  76 3.3876227e-001 1.11e-005 3.15e-007  -8.8 7.76e+000 -10.0 1.00e+000 1.00e+000h  1
  77 3.3876161e-001 6.71e-007 2.57e-003  -9.4 1.29e+000  -9.1 1.00e+000 9.79e-001h  1
  78 3.3876151e-001 4.12e-006 3.55e-009  -9.5 3.92e+000  -9.6 1.00e+000 1.00e+000h  1
  79 3.3876224e-001 5.54e-006 3.51e-007  -8.8 9.74e+000 -10.1 1.00e+000 1.00e+000h  1
iter    objective    inf_pr   inf_du lg(mu)  ||d||  lg(rg) alpha_du alpha_pr  ls
  80 3.3876211e-001 3.59e-006 1.70e-002  -8.9 2.63e+001 -10.5 1.00e+000 4.71e-001h  1
  81 3.3876199e-001 4.45e-007 8.74e-004  -8.9 6.91e+000 -10.1 1.00e+000 9.49e-001f  1
  82 3.3876197e-001 6.37e-008 4.02e-008  -8.9 2.29e+000  -9.7 1.00e+000 1.00e+000f  1

Number of Iterations....: 82

                                   (scaled)                 (unscaled)
Objective...............:  3.3876197455716717e-001   3.3876197455716717e-001
Dual infeasibility......:  4.0240069332530359e-008   4.0240069332530359e-008
Constraint violation....:  6.3695135388286417e-008   6.3695135388286417e-008
Complementarity.........:  2.6258146691311609e-009   2.6258146691311609e-009
Overall NLP error.......:  6.3695135388286417e-008   6.3695135388286417e-008


Number of objective function evaluations             = 89
Number of objective gradient evaluations             = 83
Number of equality constraint evaluations            = 89
Number of inequality constraint evaluations          = 89
Number of equality constraint Jacobian evaluations   = 83
Number of inequality constraint Jacobian evaluations = 83
Number of Lagrangian Hessian evaluations             = 82
Total CPU secs in IPOPT (w/o function evaluations)   =      8.860
Total CPU secs in NLP function evaluations           =    104.989

EXIT: Optimal Solution Found.
